
Gurobi 8.1.1 (win64, Python) logging started 06/22/19 12:49:38


Gurobi 8.1.1 (win64, Python) logging started 06/22/19 12:53:05

Academic license - for non-commercial use only

Gurobi 8.1.1 (win64, Python) logging started 06/22/19 12:55:48

Academic license - for non-commercial use only

Gurobi 8.1.1 (win64, Python) logging started 06/22/19 12:56:52

Academic license - for non-commercial use only
